nb_edges = 45;
e_name = ["aa", "ab", "ac", "ad", "ae", "af", "ag", "ah", "ai", "aj", "ak", "al", "am", "an", "ao", "ap", "aq", "ar", "as", "at", "au", "av", "aw", "ax", "ay", "az", "ba", "bb", "bc", "bd", "be", "bf", "bg", "bh", "bi", "bj", "bk", "bl", "bm", "bn", "bo", "bp", "bq", "br", "bs"];
e_type = [border, border, inter, inter, inter, inter, inter, inter, inter, inter, inter, inter, inter, inter, inter, platform, platform, platform, platform, platform, platform, platform, platform, platform, platform, platform, platform, platform, platform, platform, inter, inter, inter, inter, inter, inter, inter, inter, inter, inter, inter, inter, inter, border, border];
e_cols = [{1},{2},{3},{4},{5},{6},{7},{8},{9,10},{11},{12},{13},{14},{15},{16},{17},{18},{19},{20},{21},{22},{23},{24},{25},{26},{27},{28},{29},{30},{31},{32,33},{34},{35},{36},{37},{38},{39},{40},{41},{42},{43},{44},{45},{46},{47}];
nb_trains = 1;
t_name = ["T1"];
t_routes = [{1}];
t_est = [5];
t_type = [origin];
nb_routes = 1;
r_name = ["I3E"];
r_it_1 = ["I3E"];
r_it_2 = [""];
r_platform_name = ["S_III"];
r_dwell_min = [0];
r_dur_min = [5];
r_overlap = [0];
r_block_start = [1];
r_block_end = [8];
r_train = [1];
nb_blocks = 8;
b_edge = [18, 23, 28, 33, 36, 38, 41, 44];
b_dur = [0, 0, 0, 1, 2, 3, 4, 5];
b_start_offset = [0, 0, 0, 0, -1, -2, -3, -4];
b_stop = [true, true, true, false, false, false, false, false];
b_route = [1, 1, 1, 1, 1, 1, 1, 1];
